c ---- [ banner ] ------------------------------------------------------------
c
c Kissat SAT Solver
c 
c Copyright (c) 2021-2024 Armin Biere University of Freiburg
c Copyright (c) 2019-2021 Armin Biere Johannes Kepler University Linz
c 
c Version 4.0.1 43f02cf3e992cb44653b35e5cb26f93281552ae0
c gcc (Ubuntu 13.2.0-23ubuntu4) 13.2.0 -W -Wall -O3 -DNDEBUG
c Thu Sep 12 12:27:46 CEST 2024 Linux abryzen9 6.8.0-41-generic x86_64
c
c ---- [ parsing ] -----------------------------------------------------------
c
c opened and reading DIMACS file:
c
c   /data/artifact/AMulet2.0_artifact/exp4/cnf_resyn3_64/64_64_U_SP_WT_SE_GenMul_resyn3.cnf
c
c parsed 'p cnf 26501 117682' header
c closing input after reading 2335365 bytes (2 MB)
c finished parsing after 0.03 seconds
c
c ---- [ options ] -----------------------------------------------------------
c
c --stable=0                       (different from default '1')
c
c ---- [ solving ] -----------------------------------------------------------
c
c  seconds switched rate     size/glue tier1  binary           remaining
c         MB reductions conflicts size  tier2     irredundant
c          level restarts redundant glue  trail           variables
c
c *  0.03 10 0 0 0  0 0   0   0 0.0 0 0 0 0 0% 10463 107217 26498 100%
c (  0.06 11 0 0 0  0 0   0   0 0.0 0 0 0 0 0% 10463 107217 26498 100%
c .  0.07 12 0 0 0  0 0   0   0 0.0 0 0 0 0 0% 10459 107217 26498 100%
c c  0.14 16 0 0 0  0 0   0   0 0.0 0 0 0 0 0% 10544 107216 26496 100%
c d  0.15 16 0 0 0  0 0   0   0 0.0 0 0 0 0 0% 10540 107216 26496 100%
c =  0.20 17 0 0 0  0 0   0   0 0.0 0 0 0 0 0% 10968 107216 26280 99%
c d  0.21 17 0 0 0  0 0   0   0 0.0 0 0 0 0 0% 10536 107216 26280 99%
c f  0.33 16 0 0 0  0 0   0   0 0.0 0 0 0 0 0% 15803 98961 29228 110%
c e  0.51 24 0 0 0  0 0   0   0 0.0 0 0 0 0 0% 10027 107147 20184 76%
c )  0.51 24 0 0 0  0 0   0   0 0.0 0 0 0 0 0% 10027 107147 20184 76%
c {  0.53 24 0 0 0  0 0   0   0 0.0 0 0 2 6 0% 10027 107147 20184 76%
c -  0.81 26 147 0 1 319 39 1000 647 4.2 24 6 3 9 15% 10150 107137 20184 76%
c -  1.03 26 255 0 2 438 38 2000 1391 4.0 23 6 3 10 21% 10171 107135 20184 76%
c d  1.11 26 321 0 2 483 37 2503 1807 3.8 21 6 3 10 21% 10190 107128 20177 76%
c u  1.13 26 321 0 2 483 37 2503 1436 3.8 21 6 3 10 21% 10208 107128 20177 76%
c v  1.16 26 321 0 2 483 37 2503 1299 3.8 21 6 3 10 21% 10208 107128 20177 76%
c w  1.17 26 321 0 2 483 37 2503 1299 3.8 21 6 3 10 21% 10208 107128 20177 76%
c x  1.19 26 321 0 2 483 37 2503 1298 3.8 21 6 3 10 21% 10369 106798 20177 76%
c =  1.27 26 321 0 2 483 37 2503 1298 3.8 21 6 3 10 21% 10795 106798 19964 75%
c d  1.28 26 321 0 2 483 37 2503 1295 3.8 21 6 3 10 21% 10367 106798 19964 75%
c
c  seconds   switched   rate       size/glue tier1     binary           remaining
c         MB  reductions conflicts       size  tier2       irredundant
c           level restarts    redundant    glue    trail           variables
c
c t  1.29 26 321 0 2 483 37 2503 1295 3.8 21 6 3 10 21% 10364 106798 19964 75%
c f  1.31 26 321 0 2 483 37 2503 1295 3.8 21 6 3 10 21% 10928 105662 20530 77%
c u  1.40 24 321 0 2 483 37 2503 1263 3.8 21 6 3 10 21% 10934 105662 20530 77%
c v  1.42 24 321 0 2 483 37 2503 1170 3.8 21 6 3 10 21% 10934 105662 20530 77%
c w  1.45 24 321 0 2 483 37 2503 1166 3.8 21 6 3 10 21% 10934 105662 20530 77%
c x  1.47 24 321 0 2 483 37 2503 1166 3.8 21 6 3 10 21% 10937 105552 20530 77%
c =  1.55 24 321 0 2 483 37 2503 1166 3.8 21 6 3 10 21% 11079 105552 20459 77%
c d  1.56 24 321 0 2 483 37 2503 1166 3.8 21 6 3 10 21% 10936 105552 20459 77%
c f  1.60 24 321 0 2 483 37 2503 1166 3.8 21 6 3 10 21% 10944 105536 20463 77%
c -  1.75 26 459 0 3 536 39 3414 1635 3.7 20 5 2 9 21% 11016 105523 20463 77%
c -  2.21 26 404 0 4 762 40 5146 2593 3.8 21 5 2 8 22% 11139 105514 20463 77%
c -  2.72 26 397 0 5 1015 40 7146 3726 3.9 21 5 2 8 23% 11252 105506 20463 77%
c d  2.81 26 385 0 5 1050 38 7708 4099 3.8 21 5 2 8 23% 11198 105506 20413 77%
c u  2.84 26 385 0 5 1050 38 7708 3610 3.8 21 5 2 8 23% 11227 105506 20413 77%
c v  2.88 26 385 0 5 1050 38 7708 3005 3.8 21 5 2 8 23% 11231 105506 20413 77%
c w  2.91 26 385 0 5 1050 38 7708 3000 3.8 21 5 2 8 23% 11231 105506 20413 77%
c x  2.94 26 385 0 5 1050 38 7708 3000 3.8 21 5 2 8 23% 11233 105214 20413 77%
c =  3.07 26 385 0 5 1050 38 7708 3000 3.8 21 5 2 8 23% 11897 105214 20081 76%
c d  3.08 26 385 0 5 1050 38 7708 2973 3.8 21 5 2 8 23% 11131 105214 20075 76%
c t  3.10 26 385 0 5 1050 38 7708 2973 3.8 21 5 2 8 23% 11125 105214 20075 76%
c
c  seconds   switched    rate       size/glue tier1    binary           remaining
c         MB  reductions  conflicts       size  tier2      irredundant
c           level  restarts    redundant    glue   trail           variables
c
c f  3.14 26 385 0 5 1050 38 7708 2973 3.8 21 5 2 8 23% 11396 104785 20214 76%
c u  3.18 26 385 0 5 1050 38 7708 2883 3.8 21 5 2 8 23% 11399 104785 20214 76%
c v  3.21 26 385 0 5 1050 38 7708 2791 3.8 21 5 2 8 23% 11399 104785 20214 76%
c w  3.23 26 385 0 5 1050 38 7708 2786 3.8 21 5 2 8 23% 11399 104785 20214 76%
c x  3.27 26 385 0 5 1050 38 7708 2786 3.8 21 5 2 8 23% 11399 104430 20214 76%
c =  3.40 26 385 0 5 1050 38 7708 2786 3.8 21 5 2 8 23% 12127 104430 19850 75%
c d  3.41 26 385 0 5 1050 38 7708 2762 3.8 21 5 2 8 23% 11311 104430 19850 75%
c t  3.43 26 385 0 5 1050 38 7708 2762 3.8 21 5 2 8 23% 11252 104430 19850 75%
c f  3.48 26 385 0 5 1050 38 7708 2762 3.8 21 5 2 8 23% 12974 101840 20711 78%
c -  3.99 26 371 0 6 1273 38 9382 3696 4.1 23 6 2 8 23% 13032 101835 20711 78%
c o  4.12 26 376 0 6 1312 38 10049 4263 4.0 23 6 2 8 24% 13062 101833 20711 78%
c -  4.70 26 362 0 7 1518 38 11832 5114 4.1 25 6 2 8 24% 13118 101833 20711 78%
c s  4.95 26 356 0 7 1590 38 12511 5691 4.1 25 6 2 8 24% 13148 96189 20711 78%
c e  5.07 26 356 0 7 1590 38 12511 5691 4.1 25 6 2 8 24% 12537 96673 20257 76%
c s  5.08 26 356 0 7 1590 38 12511 5691 4.1 25 6 2 8 24% 12538 96611 20257 76%
c ^  5.09 26 356 0 7 1590 38 12511 5691 4.1 25 6 2 8 24% 12538 96611 20257 76%
c -  5.54 27 334 0 8 1739 36 14479 6389 4.1 25 6 2 8 24% 12598 96602 20257 76%
c c  5.93 27 336 0 8 1850 36 15789 7542 4.1 25 6 2 8 24% 12651 96538 20235 76%
c d  5.94 27 336 0 8 1850 36 15789 7527 4.1 25 6 2 8 24% 12374 96538 20101 76%
c u  5.98 27 336 0 8 1850 36 15789 6650 4.1 25 6 2 8 24% 12399 96538 20101 76%
c
c  seconds   switched    rate        size/glue tier1    binary          remaining
c         MB  reductions   conflicts       size  tier2      irredundant
c           level  restarts     redundant    glue   trail          variables
c
c v  6.04 27 336 0 8 1850 36 15789 5771 4.1 25 6 2 8 24% 12400 96538 20101 76%
c w  6.12 27 336 0 8 1850 36 15789 5768 4.1 25 6 2 8 24% 12400 96538 20101 76%
c x  6.16 27 336 0 8 1850 36 15789 5768 4.1 25 6 2 8 24% 12458 96181 20101 76%
c =  6.38 27 336 0 8 1850 36 15789 5768 4.1 25 6 2 8 24% 13232 96175 19714 74%
c d  6.39 27 336 0 8 1850 36 15789 5736 4.1 25 6 2 8 24% 12269 96175 19714 74%
c t  6.41 27 336 0 8 1850 36 15789 5736 4.1 25 6 2 8 24% 12180 96175 19714 74%
c f  6.48 27 336 0 8 1850 36 15789 5736 4.1 25 6 2 8 24% 12209 96093 19738 74%
c u  6.53 27 336 0 8 1850 36 15789 5591 4.1 25 6 2 8 24% 12209 96093 19738 74%
c v  6.57 27 336 0 8 1850 36 15789 5461 4.1 25 6 2 8 24% 12209 96093 19738 74%
c w  6.66 27 336 0 8 1850 36 15789 5442 4.1 25 6 2 8 24% 12209 96093 19738 74%
c x  6.70 27 336 0 8 1850 36 15789 5442 4.1 25 6 2 8 24% 12262 94427 19738 74%
c =  6.93 27 336 0 8 1850 36 15789 5442 4.1 25 6 2 8 24% 12944 94427 19397 73%
c d  6.94 27 336 0 8 1850 36 15789 5430 4.1 25 6 2 8 24% 12095 94427 19397 73%
c t  6.96 27 336 0 8 1850 36 15789 5430 4.1 25 6 2 8 24% 12087 94427 19397 73%
c f  6.99 27 336 0 8 1850 36 15789 5430 4.1 25 6 2 8 24% 12091 94413 19400 73%
c -  7.65 27 325 0 9 2081 36 17309 6087 4.2 27 6 2 8 25% 12119 94413 19400 73%
c o  8.19 27 322 0 9 2259 34 20051 8394 4.3 26 6 2 8 25% 12242 94404 19400 73%
c -  8.27 27 320 0 10 2304 34 20310 7763 4.3 27 6 2 8 25% 12251 94404 19400 73%
c -  9.32 27 308 0 11 2735 35 23475 9369 4.2 29 7 2 7 25% 12317 94403 19400 73%
c s  9.62 27 309 0 11 2825 34 25014 10801 4.1 28 7 2 7 25% 12347 92526 19400 73%
c
c  seconds   switched     rate         size/glue tier1    binary          remaining
c         MB   reductions   conflicts        size  tier2      irredundant
c           level   restarts      redundant    glue   trail          variables
c
c e  9.75 27 309 0 11 2825 34 25014 10801 4.1 28 7 2 7 25% 10396 95237 18211 69%
c 2  9.75 27 309 0 11 2825 34 25014 10801 4.1 28 7 2 7 25% 10394 95237 18211 69%
c s  9.76 27 309 0 11 2825 34 25014 10801 4.1 28 7 2 7 25% 10411 94943 18211 69%
c e  9.77 27 309 0 11 2825 34 25014 10801 4.1 28 7 2 7 25% 10389 94970 18201 69%
c ^  9.77 27 309 0 11 2825 34 25014 10801 4.1 28 7 2 7 25% 10389 94970 18201 69%
c - 10.02 27 305 0 12 2885 33 26792 9796 4.0 27 7 2 7 24% 10486 94970 18201 69%
c c 10.18 27 305 0 12 2921 33 26917 9917 4.1 28 7 2 7 24% 10538 94589 18138 68%
c d 10.18 27 305 0 12 2921 33 26917 9836 4.1 28 7 2 7 24% 10252 94589 18042 68%
c u 10.23 27 305 0 12 2921 33 26917 8600 4.1 28 7 2 7 24% 10273 94589 18042 68%
c v 10.29 27 305 0 12 2921 33 26917 7642 4.1 28 7 2 7 24% 10273 94589 18042 68%
c w 10.32 27 305 0 12 2921 33 26917 7627 4.1 28 7 2 7 24% 10273 94589 18042 68%
c x 10.41 27 305 0 12 2921 33 26917 7626 4.1 28 7 2 7 24% 10320 93620 18042 68%
c = 10.72 27 305 0 12 2921 33 26917 7626 4.1 28 7 2 7 24% 14350 93620 16027 60%
c d 10.73 27 305 0 12 2921 33 26917 7456 4.1 28 7 2 7 24% 10208 93620 16027 60%
c t 10.75 27 305 0 12 2921 33 26917 7456 4.1 28 7 2 7 24% 10102 93620 16027 60%
c f 10.81 27 305 0 12 2921 33 26917 7456 4.1 28 7 2 7 24% 10139 93499 16047 61%
c u 10.92 27 305 0 12 2921 33 26917 6747 4.1 28 7 2 7 24% 10145 93499 16047 61%
c v 10.95 27 305 0 12 2921 33 26917 6621 4.1 28 7 2 7 24% 10145 93499 16047 61%
c w 10.97 27 305 0 12 2921 33 26917 6615 4.1 28 7 2 7 24% 10145 93499 16047 61%
c x 11.08 27 305 0 12 2921 33 26917 6615 4.1 28 7 2 7 24% 10159 85952 16047 61%
c
c  seconds   switched     rate        size/glue tier1    binary          remaining
c         MB   reductions   conflicts       size  tier2      irredundant
c           level   restarts     redundant    glue   trail          variables
c
c = 11.37 27 305 0 12 2921 33 26917 6615 4.1 28 7 2 7 24% 13585 85952 14334 54%
c d 11.38 27 305 0 12 2921 33 26917 6532 4.1 28 7 2 7 24% 10088 85952 14334 54%
c t 11.40 27 305 0 12 2921 33 26917 6532 4.1 28 7 2 7 24% 9860 85952 14334 54%
c f 11.45 27 305 0 12 2921 33 26917 6532 4.1 28 7 2 7 24% 9925 85700 14388 54%
c - 12.38 26 290 0 13 3355 33 30256 8495 4.0 29 7 2 7 25% 9981 85694 14388 54%
c - 12.99 26 276 0 14 3580 32 33861 10496 4.0 29 7 2 7 25% 10050 85690 14388 54%
c - 13.71 26 275 0 15 3866 31 37602 12206 3.8 28 7 2 7 25% 10105 85684 14388 54%
c o 14.32 26 269 0 15 4099 30 40254 14574 3.8 28 7 2 7 25% 10149 85684 14388 54%
c d 14.64 26 266 0 15 4228 30 41245 15377 3.8 28 8 2 7 26% 10060 85684 14338 54%
c u 14.72 26 266 0 15 4228 30 41245 12901 3.8 28 8 2 7 26% 10079 85684 14338 54%
c v 14.80 26 266 0 15 4228 30 41245 11721 3.8 28 8 2 7 26% 10085 85684 14338 54%
c w 14.85 26 266 0 15 4228 30 41245 11721 3.8 28 8 2 7 26% 10085 85684 14338 54%
c x 14.94 26 266 0 15 4228 30 41245 11720 3.8 28 8 2 7 26% 10085 76135 14338 54%
c = 15.21 26 266 0 15 4228 30 41245 11720 3.8 28 8 2 7 26% 10097 76135 14332 54%
c d 15.22 26 266 0 15 4228 30 41245 11702 3.8 28 8 2 7 26% 10072 76135 14328 54%
c t 15.24 26 266 0 15 4228 30 41245 11702 3.8 28 8 2 7 26% 10043 76135 14328 54%
c f 15.25 26 266 0 15 4228 30 41245 11702 3.8 28 8 2 7 26% 10049 76112 14331 54%
c c 15.31 26 266 0 15 4228 30 41245 11628 3.8 28 8 2 7 26% 10108 75885 14298 54%
c d 15.32 26 266 0 15 4228 30 41245 11628 3.8 28 8 2 7 26% 10042 75885 14298 54%
c u 15.37 26 266 0 15 4228 30 41245 11163 3.8 28 8 2 7 26% 10047 75885 14298 54%
c
c  seconds   switched     rate         size/glue tier1    binary          remaining
c         MB   reductions   conflicts        size  tier2      irredundant
c           level   restarts      redundant    glue   trail          variables
c
c v 15.43 26 266 0 15 4228 30 41245 10688 3.8 28 8 2 7 26% 10049 75885 14298 54%
c w 15.55 26 266 0 15 4228 30 41245 10682 3.8 28 8 2 7 26% 10049 75885 14298 54%
c x 15.63 26 266 0 15 4228 30 41245 10681 3.8 28 8 2 7 26% 10059 73654 14298 54%
c = 15.91 26 266 0 15 4228 30 41245 10681 3.8 28 8 2 7 26% 10267 73654 14194 54%
c d 15.92 26 266 0 15 4228 30 41245 10629 3.8 28 8 2 7 26% 10045 73654 14191 54%
c t 15.93 26 266 0 15 4228 30 41245 10629 3.8 28 8 2 7 26% 10028 73654 14191 54%
c f 15.95 26 266 0 15 4228 30 41245 10629 3.8 28 8 2 7 26% 10032 73644 14193 54%
c - 16.00 26 266 0 16 4245 30 41474 9476 3.8 28 8 2 7 26% 10033 73644 14193 54%
c - 16.64 26 261 0 17 4511 29 45474 11442 3.7 28 8 2 7 25% 10095 73641 14193 54%
c - 16.95 26 245 0 18 4628 27 49598 13223 3.6 27 7 2 6 24% 10165 73641 14193 54%
c s 17.53 26 244 0 18 4899 28 52116 15557 3.6 27 7 2 6 24% 10190 68425 14193 54%
c e 17.62 26 244 0 18 4899 28 52116 15557 3.6 27 7 2 6 24% 9469 69418 13816 52%
c 2 17.62 26 244 0 18 4899 28 52116 15557 3.6 27 7 2 6 24% 9460 69418 13816 52%
c s 17.63 26 244 0 18 4899 28 52116 15557 3.6 27 7 2 6 24% 9472 69095 13816 52%
c e 17.64 26 244 0 18 4899 28 52116 15557 3.6 27 7 2 6 24% 9455 69115 13808 52%
c ^ 17.64 26 244 0 18 4899 28 52116 15557 3.6 27 7 2 6 24% 9455 69115 13808 52%
c - 17.85 26 241 0 19 5002 27 53842 13417 3.6 27 7 2 6 24% 9483 69115 13808 52%
c - 18.67 26 233 0 20 5355 26 58200 15371 3.6 26 7 2 6 24% 9548 69115 13808 52%
c c 18.86 26 232 0 20 5423 26 58889 15982 3.6 26 7 2 6 24% 9642 68600 13731 52%
c d 18.86 26 232 0 20 5423 26 58889 15747 3.6 26 7 2 6 24% 9488 68600 13731 52%
c
c  seconds   switched     rate         size/glue tier1    binary         remaining
c         MB   reductions   conflicts        size  tier2     irredundant
c           level   restarts      redundant    glue   trail         variables
c
c u 18.95 26 232 0 20 5423 26 58889 13376 3.6 26 7 2 6 24% 9527 68600 13731 52%
c v 19.01 26 232 0 20 5423 26 58889 12681 3.6 26 7 2 6 24% 9528 68600 13731 52%
c w 19.05 26 232 0 20 5423 26 58889 12678 3.6 26 7 2 6 24% 9528 68600 13731 52%
c x 19.12 26 232 0 20 5423 26 58889 12672 3.6 26 7 2 6 24% 9549 68080 13731 52%
c = 19.41 26 232 0 20 5423 26 58889 12672 3.6 26 7 2 6 24% 9567 68080 13722 52%
c d 19.42 26 232 0 20 5423 26 58889 12593 3.6 26 7 2 6 24% 9514 68080 13706 52%
c t 19.43 26 232 0 20 5423 26 58889 12593 3.6 26 7 2 6 24% 9500 68080 13706 52%
c f 19.46 26 232 0 20 5423 26 58889 12593 3.6 26 7 2 6 24% 9505 67986 13719 52%
c c 19.51 26 232 0 20 5423 26 58889 12509 3.6 26 7 2 6 24% 9534 67881 13705 52%
c d 19.52 26 232 0 20 5423 26 58889 12509 3.6 26 7 2 6 24% 9506 67881 13705 52%
c u 19.58 26 232 0 20 5423 26 58889 11962 3.6 26 7 2 6 24% 9514 67881 13705 52%
c v 19.64 26 232 0 20 5423 26 58889 11253 3.6 26 7 2 6 24% 9520 67881 13705 52%
c w 19.71 26 232 0 20 5423 26 58889 11208 3.6 26 7 2 6 24% 9520 67881 13705 52%
c x 19.78 26 232 0 20 5423 26 58889 11205 3.6 26 7 2 6 24% 9529 67722 13705 52%
c = 19.96 26 232 0 20 5423 26 58889 11205 3.6 26 7 2 6 24% 9785 67721 13577 51%
c d 19.97 26 232 0 20 5423 26 58889 11077 3.6 26 7 2 6 24% 9500 67721 13570 51%
c t 19.98 26 232 0 20 5423 26 58889 11077 3.6 26 7 2 6 24% 9491 67721 13570 51%
c - 20.46 26 226 0 21 5649 26 62672 12847 3.5 26 7 2 6 24% 9539 67720 13570 51%
c - 21.04 26 223 0 22 6016 25 67254 15083 3.5 26 7 2 6 24% 9605 67720 13570 51%
c o 21.42 26 222 0 22 6358 26 70325 17854 3.5 26 7 2 6 24% 9647 67720 13570 51%
c
c  seconds   switched     rate         size/glue tier1    binary         remaining
c         MB   reductions   conflicts        size  tier2     irredundant
c           level   restarts      redundant    glue   trail         variables
c
c - 21.58 26 221 0 23 6461 25 71944 17003 3.5 26 7 2 6 24% 9680 67720 13570 51%
c - 22.31 26 216 0 24 6999 25 76739 17046 3.5 26 8 1 6 25% 9722 67720 13570 51%
c c 22.81 26 213 0 24 7392 25 79989 19882 3.5 27 8 1 6 25% 9865 66853 13415 51%
c d 22.81 26 213 0 24 7392 25 79989 19440 3.5 27 8 1 6 25% 9555 66853 13415 51%
c u 22.85 26 213 0 24 7392 25 79989 17514 3.5 27 8 1 6 25% 9561 66853 13415 51%
c v 22.92 26 213 0 24 7392 25 79989 14884 3.5 27 8 1 6 25% 9576 66853 13415 51%
c w 23.05 26 213 0 24 7392 25 79989 14863 3.5 27 8 1 6 25% 9576 66853 13415 51%
c = 23.37 26 213 0 24 7392 25 79989 14863 3.5 27 8 1 6 25% 10364 66571 12987 49%
c d 23.38 26 213 0 24 7392 25 79989 14212 3.5 27 8 1 6 25% 9516 66571 12987 49%
c t 23.39 26 213 0 24 7392 25 79989 14212 3.5 27 8 1 6 25% 9382 66571 12987 49%
c f 23.40 26 213 0 24 7392 25 79989 14212 3.5 27 8 1 6 25% 9411 66392 13011 49%
c u 23.46 26 213 0 24 7392 25 79989 13555 3.5 27 8 1 6 25% 9398 66392 13011 49%
c v 23.50 26 213 0 24 7392 25 79989 12956 3.5 27 8 1 6 25% 9399 66392 13011 49%
c w 23.59 26 213 0 24 7392 25 79989 12884 3.5 27 8 1 6 25% 9399 66392 13011 49%
c x 23.64 26 213 0 24 7392 25 79989 12882 3.5 27 8 1 6 25% 9403 65698 13011 49%
c t 23.95 26 213 0 24 7392 25 79989 12882 3.5 27 8 1 6 25% 9395 65698 13011 49%
c - 24.10 26 211 0 25 7478 25 81637 11906 3.5 27 8 1 6 25% 9413 65695 13011 49%
c - 24.40 26 201 0 26 7706 24 86637 13649 3.4 26 8 1 6 25% 9469 65692 13011 49%
c i 24.56 26 198 0 26 7875 23 88641 15345 3.4 25 8 1 6 25% 9505 65692 13005 49%
c i 24.56 26 198 0 26 7875 23 88652 15344 3.4 25 8 1 6 25% 9509 65692 13004 49%
c
c  seconds   switched     rate         size/glue tier1    binary         remaining
c         MB   reductions   conflicts        size  tier2     irredundant
c           level   restarts      redundant    glue   trail         variables
c
c i 24.57 26 198 0 26 7884 23 88789 15456 3.4 25 8 1 6 25% 9513 65692 13003 49%
c i 24.60 26 197 0 26 7916 23 89124 15772 3.3 25 8 1 6 25% 9515 65692 13001 49%
c i 24.67 26 192 0 26 7976 23 91107 17595 3.3 25 8 1 6 24% 9532 65692 13000 49%
c - 24.73 26 192 0 27 8021 23 91736 15086 3.3 25 8 1 6 24% 9529 65692 13000 49%
c i 24.75 26 191 0 27 8038 23 91880 15218 3.3 25 8 1 6 24% 9531 65692 12999 49%
c i 24.77 26 190 0 27 8070 23 92318 15599 3.3 25 8 1 6 24% 9537 65692 12998 49%
c i 24.77 26 190 0 27 8070 23 92320 15599 3.3 25 8 1 6 24% 9537 65692 12997 49%
c i 24.80 26 190 0 27 8094 22 92574 15832 3.3 25 8 1 6 24% 9542 65692 12996 49%
c i 24.80 26 190 0 27 8095 22 92586 15836 3.3 25 8 1 6 24% 9543 65692 12995 49%
c i 24.83 26 189 0 27 8139 22 93220 16407 3.3 25 8 1 6 24% 9547 65692 12994 49%
c i 24.83 26 189 0 27 8155 22 93289 16456 3.3 25 8 1 6 24% 9552 65692 12991 49%
c } 24.84 26 187 0 27 8167 22 93901 16989 3.3 25 8 1 6 24% 9563 65690 12950 49%
c 0 24.84 26 187 0 27 8167 22 93901 16989 3.3 25 8 1 6 24% 9563 65690 12950 49%
c
c ---- [ result ] ------------------------------------------------------------
c
s UNSATISFIABLE
c
c ---- [ profiling ] ---------------------------------------------------------
c
c          16.46   66.24 %  search
c          16.46   66.24 %  focused
c           7.85   31.61 %  simplify
c           7.64   30.74 %  probe
c           3.14   12.65 %  sweep
c           2.74   11.04 %  vivify
c           0.59    2.38 %  factor
c           0.53    2.14 %  congruence
c           0.48    1.94 %  eliminate
c           0.46    1.83 %  preprocess
c           0.45    1.80 %  substitute
c           0.18    0.72 %  fastel
c           0.15    0.62 %  reduce
c           0.12    0.49 %  transitive
c           0.09    0.36 %  subsume
c           0.06    0.24 %  backbone
c           0.05    0.19 %  lucky
c           0.03    0.13 %  parse
c =============================================
c          24.84  100.00 %  total
c
c ---- [ statistics ] --------------------------------------------------------
c
c chronological:                         4302                5 %  conflicts
c conflicts:                            93901             3779.73 per second
c congruent:                              366                1 %  variables
c decisions:                          2130825               22.69 per conflict
c eliminated:                           11082               42 %  variables
c factored:                              4661               18 %  variables
c fast_eliminated:                       9044               82 %  eliminated
c fast_subsumed:                          200                1 %  per subsumed
c iterations:                              13                0 %  variables
c propagations:                      87278888          3513176    per second
c reductions:                              27             3478    interval
c reordered:                                4            23475    interval
c restarts:                              8167               11    interval
c strengthened:                           838                0 %  checks
c substituted:                           7029               27 %  variables
c subsumed:                             13582                1 %  checks
c switched:                                 0                0    interval
c vivified:                             54391               13 %  checks
c
c ---- [ glue usage ] --------------------------------------------------------
c
c focused glue 1   used 115169 clauses 51.57% accumulated 51.57% tier1
c focused glue 2   used  52621 clauses 23.56% accumulated 75.14%
c focused glue 3-4 used  25482 clauses 11.41% accumulated 86.55%
c focused glue 5   used   6698 clauses  3.00% accumulated 89.55%
c focused glue 6   used   4867 clauses  2.18% accumulated 91.73% tier2
c
c ---- [ resources ] ---------------------------------------------------------
c
c maximum-resident-set-size:         27811840 bytes         27 MB
c process-time:                            25s              24.84 seconds
c
c ---- [ shutting down ] -----------------------------------------------------
c
c exit 20
